p cnf 144 355
7 8 -9 0
-7 -8 0
-7 9 0
5 -6 7 0
-5 6 0
-5 -7 0
4 5 10 0
-4 -5 0
-4 -10 0
2 -3 4 0
-2 3 0
-2 -4 0
-1 -2 0
-12 -13 0
-12 -14 0
-12 15 0
13 14 -15 12 0
-11 12 -16 0
11 12 16 0
-11 -12 17 0
11 -12 -17 0
-1 11 0
2 -11 1 0
24 25 -26 0
-24 -25 0
-24 26 0
22 -23 24 0
-22 23 0
-22 -24 0
21 22 27 0
-21 -22 0
-21 -27 0
19 -20 21 0
-19 20 0
-19 -21 0
-18 -19 0
-29 -30 0
-29 -31 0
-29 32 0
30 31 -32 29 0
-28 29 -33 0
28 29 33 0
-28 -29 34 0
28 -29 -34 0
-18 28 0
19 -28 18 0
41 42 -43 0
-41 -42 0
-41 43 0
39 -40 41 0
-39 40 0
-39 -41 0
38 39 44 0
-38 -39 0
-38 -44 0
36 -37 38 0
-36 37 0
-36 -38 0
-35 -36 0
-46 -47 0
-46 -48 0
-46 49 0
47 48 -49 46 0
-45 46 -50 0
45 46 50 0
-45 -46 51 0
45 -46 -51 0
-35 45 0
36 -45 35 0
58 59 -60 0
-58 -59 0
-58 60 0
56 -57 58 0
-56 57 0
-56 -58 0
55 56 61 0
-55 -56 0
-55 -61 0
53 -54 55 0
-53 54 0
-53 -55 0
-52 -53 0
-63 -64 0
-63 -65 0
-63 66 0
64 65 -66 63 0
-62 63 -67 0
62 63 67 0
-62 -63 68 0
62 -63 -68 0
-52 62 0
53 -62 52 0
75 76 -77 0
-75 -76 0
-75 77 0
73 -74 75 0
-73 74 0
-73 -75 0
72 73 78 0
-72 -73 0
-72 -78 0
70 -71 72 0
-70 71 0
-70 -72 0
-69 -70 0
-80 -81 0
-80 -82 0
-80 83 0
81 82 -83 80 0
-79 80 -84 0
79 80 84 0
-79 -80 85 0
79 -80 -85 0
-69 79 0
70 -79 69 0
92 93 -94 0
-92 -93 0
-92 94 0
90 -91 92 0
-90 91 0
-90 -92 0
89 90 95 0
-89 -90 0
-89 -95 0
87 -88 89 0
-87 88 0
-87 -89 0
-86 -87 0
-97 -98 0
-97 -99 0
-97 100 0
98 99 -100 97 0
-96 97 -101 0
96 97 101 0
-96 -97 102 0
96 -97 -102 0
-86 96 0
87 -96 86 0
1 18 35 52 69 86 0
-103 -102 0
-103 97 0
102 -97 103 0
-103 0
-76 93 0
76 -93 0
104 0
104 105 0
-104 -105 0
-106 107 -82 0
-106 -107 82 0
106 107 82 0
106 -107 -82 0
-106 99 0
106 -99 0
109 82 -81 0
-109 -82 0
-109 81 0
-108 109 -83 0
-108 -109 83 0
108 109 83 0
108 -109 -83 0
108 100 0
-108 -100 0
111 82 83 0
-111 -82 0
-111 -83 0
-110 111 -81 0
-110 -111 81 0
110 111 81 0
110 -111 -81 0
110 98 0
-110 -98 0
-73 91 0
73 -91 0
-70 88 0
70 -88 0
79 101 0
-79 -101 0
-75 94 0
75 -94 0
-112 -85 0
-112 80 0
85 -80 112 0
-112 0
-59 76 0
59 -76 0
113 0
113 107 0
-113 -107 0
-114 115 -65 0
-114 -115 65 0
114 115 65 0
114 -115 -65 0
-114 82 0
114 -82 0
117 65 -64 0
-117 -65 0
-117 64 0
-116 117 -66 0
-116 -117 66 0
116 117 66 0
116 -117 -66 0
116 83 0
-116 -83 0
119 65 66 0
-119 -65 0
-119 -66 0
-118 119 -64 0
-118 -119 64 0
118 119 64 0
118 -119 -64 0
118 81 0
-118 -81 0
-56 74 0
56 -74 0
-53 71 0
53 -71 0
62 84 0
-62 -84 0
-58 77 0
58 -77 0
-120 -68 0
-120 63 0
68 -63 120 0
-120 0
-42 59 0
42 -59 0
121 0
121 115 0
-121 -115 0
-122 123 -48 0
-122 -123 48 0
122 123 48 0
122 -123 -48 0
-122 65 0
122 -65 0
125 48 -47 0
-125 -48 0
-125 47 0
-124 125 -49 0
-124 -125 49 0
124 125 49 0
124 -125 -49 0
124 66 0
-124 -66 0
127 48 49 0
-127 -48 0
-127 -49 0
-126 127 -47 0
-126 -127 47 0
126 127 47 0
126 -127 -47 0
126 64 0
-126 -64 0
-39 57 0
39 -57 0
-36 54 0
36 -54 0
45 67 0
-45 -67 0
-41 60 0
41 -60 0
-128 -51 0
-128 46 0
51 -46 128 0
-128 0
-25 42 0
25 -42 0
129 0
129 123 0
-129 -123 0
-130 131 -31 0
-130 -131 31 0
130 131 31 0
130 -131 -31 0
-130 48 0
130 -48 0
133 31 -30 0
-133 -31 0
-133 30 0
-132 133 -32 0
-132 -133 32 0
132 133 32 0
132 -133 -32 0
132 49 0
-132 -49 0
135 31 32 0
-135 -31 0
-135 -32 0
-134 135 -30 0
-134 -135 30 0
134 135 30 0
134 -135 -30 0
134 47 0
-134 -47 0
-22 40 0
22 -40 0
-19 37 0
19 -37 0
28 50 0
-28 -50 0
-24 43 0
24 -43 0
-136 -34 0
-136 29 0
34 -29 136 0
-136 0
-8 25 0
8 -25 0
137 0
137 131 0
-137 -131 0
-138 139 -14 0
-138 -139 14 0
138 139 14 0
138 -139 -14 0
-138 31 0
138 -31 0
141 14 -13 0
-141 -14 0
-141 13 0
-140 141 -15 0
-140 -141 15 0
140 141 15 0
140 -141 -15 0
140 32 0
-140 -32 0
143 14 15 0
-143 -14 0
-143 -15 0
-142 143 -13 0
-142 -143 13 0
142 143 13 0
142 -143 -13 0
142 30 0
-142 -30 0
-5 23 0
5 -23 0
-2 20 0
2 -20 0
11 33 0
-11 -33 0
-7 26 0
7 -26 0
-144 -17 0
-144 12 0
17 -12 144 0
-144 0
14 0
15 0
13 0
6 0
3 0
16 0
9 0
